param n := 120;
param c := 1500
param : V : p w :=
   0	  71	  61
   1	 106	  96
   2	 101	  91
   3	  47	  37
   4	  63	  53
   5	  86	  76
   6	  60	  50
   7	  76	  66
   8	  80	  70
   9	  97	  87
  10	 102	  92
  11	  45	  35
  12	  63	  53
  13	 105	  95
  14	  57	  47
  15	  66	  56
  16	  65	  55
  17	  96	  86
  18	  42	  32
  19	 109	  99
  20	  93	  83
  21	  98	  88
  22	  51	  41
  23	  73	  63
  24	  87	  77
  25	  70	  60
  26	  76	  66
  27	  63	  53
  28	  89	  79
  29	  91	  81
  30	 106	  96
  31	  44	  34
  32	 109	  99
  33	  57	  47
  34	  84	  74
  35	  97	  87
  36	  54	  44
  37	  87	  77
  38	  62	  52
  39	 109	  99
  40	  79	  69
  41	  74	  64
  42	 104	  94
  43	  48	  38
  44	  79	  69
  45	  71	  61
  46	 108	  98
  47	  50	  40
  48	  94	  84
  49	  99	  89
  50	  59	  49
  51	  74	  64
  52	  63	  53
  53	  51	  41
  54	  44	  34
  55	  95	  85
  56	  45	  35
  57	  65	  55
  58	  71	  61
  59	  78	  68
  60	 110	 100
  61	  85	  75
  62	 108	  98
  63	  46	  36
  64	  54	  44
  65	  67	  57
  66	  34	  24
  67	  70	  60
  68	  55	  45
  69	  58	  48
  70	  70	  60
  71	 104	  94
  72	  81	  71
  73	  80	  70
  74	  74	  64
  75	  72	  62
  76	 103	  93
  77	  30	  20
  78	  79	  69
  79	  47	  37
  80	  73	  63
  81	  71	  61
  82	  36	  26
  83	  64	  54
  84	  99	  89
  85	  56	  46
  86	  64	  54
  87	  60	  50
  88	  42	  32
  89	  81	  71
  90	  72	  62
  91	  50	  40
  92	  36	  26
  93	  69	  59
  94	  72	  62
  95	  37	  27
  96	  70	  60
  97	  60	  50
  98	  84	  74
  99	  44	  34
 100	  50	  40
 101	  80	  70
 102	  66	  56
 103	  33	  23
 104	  76	  66
 105	  67	  57
 106	  53	  43
 107	  55	  45
 108	  75	  65
 109	  35	  25
 110	  92	  82
 111	  92	  82
 112	  47	  37
 113	  76	  66
 114	  57	  47
 115	  54	  44
 116	 104	  94
 117	  33	  23
 118	  34	  24
 119	  61	  51
;

set E :=
   0	   6
   0	  21
   0	  22
   0	  23
   0	  25
   0	  42
   0	  48
   0	  60
   0	  68
   0	  71
   0	  73
   0	  76
   0	  80
   0	  81
   0	  82
   0	  83
   0	  90
   0	  95
   0	  98
   0	 107
   1	  11
   1	  24
   1	  40
   1	  41
   1	  48
   1	  56
   1	  62
   1	  68
   1	  69
   1	  70
   1	  72
   1	  80
   1	  83
   1	  85
   1	  86
   1	  87
   1	  90
   1	 111
   1	 117
   2	   3
   2	   7
   2	   9
   2	  10
   2	  11
   2	  14
   2	  19
   2	  27
   2	  28
   2	  31
   2	  34
   2	  49
   2	  52
   2	  60
   2	  62
   2	  64
   2	  68
   2	  80
   2	  92
   2	  93
   2	 102
   2	 106
   2	 107
   2	 109
   2	 111
   2	 114
   3	   4
   3	  17
   3	  19
   3	  20
   3	  25
   3	  32
   3	  35
   3	  43
   3	  44
   3	  57
   3	  62
   3	  74
   3	  77
   3	  80
   3	  88
   3	  89
   3	  91
   3	  99
   3	 102
   3	 103
   3	 110
   3	 114
   3	 115
   3	 116
   4	   5
   4	  22
   4	  24
   4	  25
   4	  31
   4	  39
   4	  42
   4	  48
   4	  50
   4	  53
   4	  55
   4	  59
   4	  61
   4	  62
   4	  64
   4	  68
   4	  70
   4	  73
   4	  78
   4	  81
   4	  85
   4	  94
   4	  96
   4	 100
   4	 104
   4	 106
   4	 107
   4	 108
   4	 111
   4	 117
   5	   8
   5	  10
   5	  28
   5	  29
   5	  31
   5	  43
   5	  47
   5	  49
   5	  50
   5	  68
   5	  70
   5	  77
   5	  80
   5	  88
   5	  89
   5	  90
   5	  94
   5	 100
   5	 105
   5	 108
   6	  13
   6	  16
   6	  18
   6	  19
   6	  23
   6	  24
   6	  25
   6	  27
   6	  38
   6	  42
   6	  49
   6	  58
   6	  59
   6	  60
   6	  66
   6	  72
   6	  73
   6	  79
   6	  82
   6	  85
   6	  92
   6	  93
   6	  97
   6	 104
   6	 105
   7	   9
   7	  15
   7	  18
   7	  24
   7	  31
   7	  42
   7	  45
   7	  52
   7	  53
   7	  55
   7	  57
   7	  66
   7	  68
   7	  72
   7	  77
   7	  86
   7	  90
   7	  92
   7	  96
   7	 104
   7	 108
   7	 112
   7	 115
   7	 117
   7	 118
   8	  18
   8	  33
   8	  35
   8	  49
   8	  61
   8	  63
   8	  82
   8	  94
   8	  99
   8	 100
   8	 101
   8	 116
   8	 118
   9	  16
   9	  17
   9	  24
   9	  30
   9	  33
   9	  45
   9	  47
   9	  49
   9	  53
   9	  56
   9	  57
   9	  65
   9	  69
   9	  70
   9	  75
   9	  76
   9	  90
   9	  92
   9	  93
   9	 101
   9	 103
   9	 104
   9	 106
   9	 113
   9	 117
  10	  11
  10	  16
  10	  25
  10	  27
  10	  34
  10	  38
  10	  41
  10	  43
  10	  46
  10	  51
  10	  53
  10	  58
  10	  85
  10	  86
  10	  87
  10	  90
  10	  91
  10	  99
  10	 109
  10	 110
  11	  13
  11	  15
  11	  24
  11	  26
  11	  27
  11	  32
  11	  34
  11	  35
  11	  38
  11	  43
  11	  51
  11	  53
  11	  54
  11	  56
  11	  69
  11	  79
  11	  80
  11	  81
  11	  88
  11	  93
  11	  94
  11	  98
  11	 101
  11	 103
  11	 105
  11	 109
  11	 118
  11	 119
  12	  13
  12	  15
  12	  16
  12	  17
  12	  27
  12	  32
  12	  34
  12	  47
  12	  54
  12	  58
  12	  61
  12	  65
  12	  70
  12	  76
  12	  78
  12	  84
  12	  87
  12	  88
  12	  90
  12	  99
  12	 102
  12	 106
  12	 110
  12	 115
  12	 117
  13	  16
  13	  17
  13	  20
  13	  27
  13	  34
  13	  37
  13	  40
  13	  42
  13	  49
  13	  53
  13	  58
  13	  68
  13	  71
  13	  72
  13	  80
  13	  87
  13	  90
  13	 101
  13	 103
  13	 109
  13	 111
  13	 112
  13	 113
  13	 114
  14	  15
  14	  22
  14	  25
  14	  28
  14	  36
  14	  38
  14	  39
  14	  40
  14	  47
  14	  49
  14	  55
  14	  56
  14	  57
  14	  61
  14	  63
  14	  64
  14	  69
  14	  70
  14	  94
  14	 102
  14	 103
  14	 105
  14	 107
  14	 112
  14	 116
  15	  21
  15	  25
  15	  29
  15	  41
  15	  50
  15	  51
  15	  58
  15	  60
  15	  68
  15	  73
  15	  83
  15	  91
  15	  93
  15	  98
  15	 101
  15	 114
  15	 118
  16	  26
  16	  29
  16	  32
  16	  51
  16	  70
  16	  72
  16	  76
  16	  80
  16	  85
  16	  88
  16	  89
  16	  96
  16	 104
  16	 105
  16	 108
  16	 114
  17	  19
  17	  21
  17	  49
  17	  52
  17	  53
  17	  61
  17	  66
  17	  79
  17	  84
  17	  86
  17	  90
  17	  93
  17	  94
  17	  95
  17	 101
  17	 103
  17	 107
  17	 112
  17	 114
  17	 116
  17	 119
  18	  22
  18	  29
  18	  34
  18	  36
  18	  42
  18	  47
  18	  55
  18	  57
  18	  58
  18	  59
  18	  67
  18	  76
  18	  77
  18	  79
  18	  80
  18	  83
  18	  85
  18	  91
  18	 110
  18	 111
  18	 117
  19	  20
  19	  21
  19	  23
  19	  29
  19	  40
  19	  41
  19	  52
  19	  54
  19	  60
  19	  61
  19	  63
  19	  70
  19	  73
  19	  74
  19	  75
  19	  77
  19	  88
  19	  89
  19	 102
  19	 107
  19	 110
  19	 112
  19	 119
  20	  21
  20	  22
  20	  23
  20	  31
  20	  33
  20	  39
  20	  41
  20	  43
  20	  46
  20	  53
  20	  61
  20	  65
  20	  67
  20	  70
  20	  73
  20	  87
  20	  98
  20	  99
  20	 104
  20	 109
  20	 110
  20	 116
  21	  22
  21	  30
  21	  33
  21	  47
  21	  50
  21	  53
  21	  67
  21	  71
  21	  77
  21	  83
  21	  90
  21	  92
  21	 104
  21	 116
  21	 119
  22	  23
  22	  26
  22	  34
  22	  36
  22	  38
  22	  40
  22	  41
  22	  44
  22	  50
  22	  52
  22	  54
  22	  57
  22	  59
  22	  60
  22	  62
  22	  66
  22	  74
  22	  79
  22	  86
  22	  89
  22	  93
  22	  95
  22	 102
  22	 103
  22	 108
  22	 110
  23	  24
  23	  27
  23	  32
  23	  33
  23	  38
  23	  40
  23	  42
  23	  48
  23	  49
  23	  50
  23	  59
  23	  63
  23	  70
  23	  71
  23	  84
  23	  91
  23	  92
  23	 100
  23	 108
  23	 117
  23	 119
  24	  36
  24	  43
  24	  44
  24	  45
  24	  46
  24	  52
  24	  57
  24	  61
  24	  64
  24	  70
  24	  77
  24	  79
  24	  84
  24	  88
  24	  93
  24	  94
  24	  95
  24	 103
  24	 104
  24	 110
  24	 113
  24	 114
  24	 116
  25	  29
  25	  33
  25	  35
  25	  36
  25	  38
  25	  44
  25	  45
  25	  46
  25	  48
  25	  54
  25	  55
  25	  58
  25	  63
  25	  71
  25	  80
  25	  82
  25	  89
  25	  97
  25	  98
  25	 100
  25	 109
  25	 113
  25	 119
  26	  31
  26	  33
  26	  36
  26	  39
  26	  41
  26	  42
  26	  48
  26	  50
  26	  62
  26	  79
  26	  85
  26	  87
  26	  89
  26	  90
  26	 107
  26	 110
  26	 116
  27	  29
  27	  30
  27	  37
  27	  40
  27	  48
  27	  51
  27	  55
  27	  57
  27	  70
  27	  75
  27	  80
  27	 100
  27	 107
  27	 110
  27	 116
  27	 119
  28	  32
  28	  37
  28	  44
  28	  46
  28	  55
  28	  57
  28	  63
  28	  64
  28	  66
  28	  67
  28	  73
  28	  80
  28	  87
  28	  91
  28	  97
  28	 100
  29	  33
  29	  35
  29	  38
  29	  42
  29	  48
  29	  54
  29	  56
  29	  63
  29	  64
  29	  66
  29	  67
  29	  81
  29	  89
  29	  93
  29	  99
  29	 105
  29	 110
  30	  31
  30	  34
  30	  44
  30	  50
  30	  51
  30	  61
  30	  67
  30	  69
  30	  73
  30	  79
  30	  81
  30	  82
  30	 109
  30	 111
  30	 113
  30	 118
  31	  37
  31	  40
  31	  43
  31	  60
  31	  61
  31	  62
  31	  63
  31	  72
  31	  76
  31	  82
  31	  84
  31	  86
  31	  92
  31	  98
  31	 103
  31	 112
  31	 114
  31	 118
  32	  34
  32	  35
  32	  43
  32	  48
  32	  49
  32	  54
  32	  55
  32	  59
  32	  60
  32	  61
  32	  69
  32	  77
  32	  81
  32	  82
  32	  83
  32	  84
  32	  86
  32	  90
  32	  92
  32	  97
  32	  98
  32	 104
  32	 106
  32	 112
  33	  34
  33	  36
  33	  39
  33	  46
  33	  49
  33	  50
  33	  54
  33	  55
  33	  58
  33	  61
  33	  63
  33	  64
  33	  66
  33	  79
  33	  80
  33	  85
  33	  87
  33	  94
  33	 100
  33	 103
  33	 105
  34	  35
  34	  38
  34	  42
  34	  50
  34	  55
  34	  56
  34	  59
  34	  65
  34	  76
  34	  78
  34	  83
  34	  85
  34	  90
  34	  91
  34	  94
  34	  96
  34	 109
  34	 111
  35	  37
  35	  39
  35	  42
  35	  44
  35	  51
  35	  55
  35	  59
  35	  61
  35	  70
  35	  74
  35	  76
  35	  78
  35	  84
  35	  94
  35	 101
  35	 102
  35	 107
  36	  39
  36	  40
  36	  44
  36	  46
  36	  53
  36	  56
  36	  59
  36	  60
  36	  61
  36	  67
  36	  80
  36	  82
  36	  85
  36	  94
  36	  99
  36	 101
  36	 106
  36	 111
  36	 119
  37	  40
  37	  42
  37	  49
  37	  57
  37	  70
  37	  71
  37	  85
  37	  90
  37	  92
  37	  95
  37	 100
  37	 103
  37	 107
  37	 114
  37	 115
  37	 119
  38	  40
  38	  48
  38	  50
  38	  58
  38	  63
  38	  64
  38	  66
  38	  69
  38	  73
  38	  74
  38	  75
  38	  78
  38	  81
  38	  85
  38	  96
  38	 101
  38	 107
  38	 113
  39	  41
  39	  44
  39	  49
  39	  53
  39	  62
  39	  65
  39	  71
  39	  72
  39	  73
  39	  83
  39	  84
  39	  86
  39	  91
  39	  93
  39	  94
  39	  97
  39	 107
  39	 110
  39	 117
  40	  45
  40	  46
  40	  53
  40	  54
  40	  62
  40	  64
  40	  70
  40	  74
  40	  75
  40	  84
  40	  85
  40	  89
  40	  91
  40	  92
  40	 101
  40	 105
  40	 107
  41	  45
  41	  46
  41	  48
  41	  76
  41	  77
  41	  78
  41	  81
  41	  84
  41	 103
  41	 104
  41	 106
  41	 109
  41	 111
  41	 113
  41	 115
  41	 117
  42	  47
  42	  48
  42	  49
  42	  53
  42	  62
  42	  63
  42	  64
  42	  67
  42	  70
  42	  73
  42	  76
  42	  90
  42	  98
  42	 102
  42	 106
  42	 113
  42	 114
  43	  44
  43	  53
  43	  56
  43	  57
  43	  60
  43	  63
  43	  68
  43	  77
  43	  81
  43	  87
  43	  88
  43	  97
  43	 112
  43	 114
  43	 115
  43	 119
  44	  50
  44	  57
  44	  60
  44	  62
  44	  67
  44	  69
  44	  76
  44	  81
  44	  89
  44	  93
  44	  95
  44	  98
  44	 102
  44	 107
  44	 108
  44	 112
  44	 115
  45	  67
  45	  72
  45	  78
  45	  84
  45	  91
  45	  95
  45	  97
  45	 111
  45	 112
  46	  49
  46	  51
  46	  68
  46	  69
  46	  78
  46	  80
  46	  86
  46	  87
  46	  89
  46	  95
  46	  96
  46	  97
  46	  98
  46	 100
  46	 102
  46	 103
  46	 107
  46	 110
  46	 114
  46	 115
  47	  55
  47	  70
  47	  77
  47	  98
  47	  99
  47	 106
  47	 110
  48	  55
  48	  56
  48	  57
  48	  60
  48	  61
  48	  63
  48	  64
  48	  77
  48	  80
  48	  82
  48	  99
  48	 118
  49	  54
  49	  56
  49	  57
  49	  60
  49	  63
  49	  64
  49	  66
  49	  69
  49	  85
  49	  87
  49	  90
  49	  94
  49	 108
  49	 111
  49	 117
  50	  52
  50	  82
  50	  90
  50	  99
  50	 100
  50	 102
  50	 106
  50	 109
  50	 114
  50	 115
  50	 117
  50	 119
  51	  54
  51	  75
  51	  89
  51	  97
  51	 100
  51	 104
  51	 108
  51	 109
  51	 117
  52	  58
  52	  66
  52	  67
  52	  69
  52	  75
  52	  80
  52	  84
  52	  85
  52	  87
  52	  91
  52	  99
  52	 103
  52	 111
  52	 113
  53	  59
  53	  60
  53	  62
  53	  63
  53	  64
  53	  67
  53	  80
  53	  87
  53	  97
  53	  99
  53	 105
  53	 106
  53	 115
  53	 116
  54	  55
  54	  70
  54	  71
  54	  78
  54	  92
  54	  93
  54	  94
  54	  96
  54	  97
  54	 102
  54	 118
  54	 119
  55	  58
  55	  65
  55	  70
  55	  77
  55	  92
  55	  95
  55	 109
  55	 111
  55	 114
  56	  57
  56	  60
  56	  71
  56	  73
  56	  76
  56	  77
  56	  79
  56	  81
  56	  86
  56	  91
  56	  93
  56	  96
  56	 100
  56	 105
  56	 111
  56	 114
  56	 117
  56	 118
  57	  58
  57	  65
  57	  67
  57	  69
  57	  71
  57	  75
  57	  76
  57	  80
  57	  81
  57	  82
  57	  84
  57	  91
  57	  94
  57	 109
  57	 110
  57	 111
  57	 113
  57	 114
  57	 116
  58	  63
  58	  70
  58	  77
  58	  87
  58	  90
  58	  98
  59	  60
  59	  61
  59	  62
  59	  89
  59	  90
  59	  91
  59	  92
  59	 107
  59	 115
  59	 116
  60	  62
  60	  64
  60	  68
  60	  69
  60	  77
  60	  79
  60	  84
  60	  88
  60	  91
  60	  93
  60	  95
  60	 115
  60	 119
  61	  71
  61	  74
  61	  76
  61	  81
  61	  84
  61	  85
  61	  89
  61	  91
  61	  96
  61	 101
  61	 102
  62	  65
  62	  66
  62	  67
  62	  69
  62	  74
  62	  80
  62	  90
  62	  92
  62	 101
  63	  66
  63	  72
  63	  74
  63	  78
  63	  79
  63	  87
  63	 101
  63	 103
  63	 104
  63	 108
  63	 109
  63	 112
  63	 115
  63	 119
  64	  92
  64	 113
  65	  69
  65	  71
  65	  89
  65	  92
  65	  98
  65	 107
  65	 108
  65	 115
  65	 116
  65	 117
  65	 119
  66	  73
  66	  85
  66	  92
  66	  96
  66	  99
  66	 104
  66	 111
  66	 113
  66	 115
  67	  68
  67	  79
  67	  82
  67	  87
  67	  89
  67	  90
  67	  91
  67	 101
  67	 102
  67	 105
  67	 110
  67	 114
  68	  77
  68	  79
  68	  87
  68	  88
  68	  90
  68	  96
  68	  97
  68	  98
  68	 107
  68	 113
  69	  73
  69	  74
  69	  83
  69	  87
  69	  95
  69	  99
  69	 102
  69	 110
  70	  74
  70	  93
  70	  98
  70	 109
  71	  82
  71	  89
  71	  91
  71	 101
  71	 113
  71	 114
  71	 115
  72	  76
  72	  90
  72	  92
  72	  95
  72	 100
  72	 102
  72	 103
  72	 104
  72	 109
  72	 112
  73	  75
  73	  85
  73	  89
  73	  92
  73	  96
  73	 103
  73	 104
  73	 105
  73	 106
  73	 117
  74	  76
  74	  81
  74	  88
  74	 100
  74	 105
  74	 112
  74	 115
  75	  78
  75	  80
  75	  88
  75	  97
  75	 104
  75	 108
  75	 113
  75	 116
  75	 119
  76	  88
  76	  90
  76	 101
  76	 107
  76	 108
  76	 111
  77	  83
  77	  84
  77	  87
  77	  88
  77	  90
  77	 100
  77	 105
  77	 108
  77	 109
  77	 111
  77	 112
  77	 115
  78	  81
  78	  85
  78	  86
  78	  92
  78	  97
  78	 105
  78	 107
  78	 109
  78	 111
  78	 112
  79	  87
  79	  88
  79	  91
  79	 102
  79	 104
  79	 106
  79	 112
  79	 115
  79	 116
  79	 117
  80	  84
  80	  93
  80	 107
  80	 110
  80	 118
  81	  84
  81	  96
  81	 100
  81	 101
  81	 110
  81	 114
  81	 119
  82	  86
  82	  88
  82	  94
  82	 103
  82	 109
  82	 118
  83	  96
  83	  99
  83	 102
  83	 109
  83	 110
  83	 112
  84	  86
  84	  92
  84	 100
  84	 103
  84	 108
  85	  87
  85	  88
  85	  90
  85	 101
  85	 105
  85	 109
  85	 112
  85	 117
  85	 119
  86	  87
  86	 113
  87	  91
  87	  96
  87	  98
  87	 108
  88	  91
  88	  93
  88	  94
  88	  97
  88	 103
  88	 107
  88	 108
  88	 109
  88	 112
  88	 113
  88	 116
  88	 119
  89	  90
  89	  91
  89	  95
  89	  98
  89	 105
  89	 115
  89	 116
  89	 119
  90	  92
  90	  97
  90	 102
  90	 113
  90	 117
  91	 100
  91	 105
  91	 108
  91	 111
  91	 113
  91	 117
  91	 118
  92	  94
  92	 100
  92	 105
  92	 116
  92	 117
  93	 100
  93	 115
  93	 117
  94	  98
  94	 103
  94	 106
  94	 108
  94	 113
  94	 114
  94	 115
  94	 116
  95	  97
  95	  98
  95	  99
  95	 101
  95	 104
  95	 105
  95	 107
  95	 119
  96	 103
  96	 104
  96	 108
  96	 114
  97	  98
  97	 103
  97	 109
  97	 114
  97	 119
  98	  99
  98	 105
  98	 119
  99	 113
  99	 114
  99	 118
 100	 103
 100	 104
 100	 105
 100	 107
 100	 111
 100	 117
 101	 103
 101	 108
 101	 112
 101	 119
 102	 106
 102	 109
 102	 115
 103	 107
 103	 110
 103	 113
 103	 116
 104	 107
 104	 109
 104	 112
 104	 116
 105	 109
 105	 114
 106	 109
 106	 111
 106	 115
 106	 118
 107	 109
 107	 113
 107	 117
 107	 118
 108	 109
 108	 111
 108	 112
 108	 113
 108	 118
 109	 115
 109	 119
 110	 112
 110	 117
 111	 117
 114	 118
 115	 117
;
